WARNING: for repeatability, setting FPU to use double precision
============================[ Problem Statistics ]=============================
|                                                                             |
|  Number of variables:           100                                         |
|  Number of clauses:             449                                         |
|  Parse time:                   0.00 s                                       |
|  Eliminated clauses:           0.00 Mb                                      |
|  Simplification time:          0.00 s                                       |
|                                                                             |
============================[ Search Statistics ]==============================
| Conflicts |          ORIGINAL         |          LEARNT          | Progress |
|           |    Vars  Clauses Literals |    Limit  Clauses Lit/Cl |          |
===============================================================================
|       100 |      99      447     1346 |      163      100      8 |  0.010 % |
|       250 |      99      447     1346 |      180      164      6 |  0.010 % |
===============================================================================
restarts              : 3
conflicts             : 315            (88112 /sec)
decisions             : 405            (0.00 % random) (113287 /sec)
propagations          : 7061           (1975105 /sec)
conflict literals     : 2070           (17.43 % deleted)
Memory used           : 13.00 MB
CPU time              : 0.003575 s

SATISFIABLE
